unsat
(:binary-propagations  9
 :conflicts            1
 :final-checks         1
 :max-generation       1
 :max-memory           28.52
 :memory               22.09
 :mk-bool-var          3412
 :mk-clause            1245
 :mk-clause-binary     5821
 :num-allocs           110270403
 :num-checks           1
 :propagations         9
 :quant-instantiations 940
 :restarts             1
 :rlimit-count         642479
 :time                 0.14)
